networks/zoo_116_2645/zoo_116_2645-lower.txt
Number of groups: 71
Flow 13: {4 53 0} {53 14 0} {14 72 0} 
Flow 23: {1 2 0} {2 54 0} {54 51 0} {51 17 0} {17 24 0} {24 82 0} 
Flow 33: {51 36 0} {36 94 0} 
Flow 150: {3 57 0} {57 49 0} {49 107 0} 
Flow 189: {4 54 0} {54 42 0} {42 41 0} {41 99 0} 
Flow 285: {5 52 0} {52 30 0} {30 88 0} 
Flow 290: {6 11 0} {11 37 0} 
Flow 315: {7 8 0} 
Flow 365: {8 7 0} {7 2 0} {2 60 0} 
Flow 380: {8 54 0} {54 52 0} {52 29 0} {29 87 0} 
Flow 389: {54 43 0} {43 44 0} {44 102 0} 
Flow 433: {10 52 0} {52 37 0} {37 95 0} 
Flow 498: {11 52 0} {52 48 0} 
Flow 510: {11 6 0} {6 5 0} {5 63 0} 
Flow 528: {12 44 0} {44 41 0} {41 42 0} {42 100 0} 
Flow 566: {13 53 0} {53 56 0} 
Flow 598: {14 53 0} {53 35 0} {35 93 0} 
Flow 655: {15 51 0} {51 34 0} {34 38 0} {38 96 0} 
Flow 675: {2 1 0} {1 4 0} {4 62 0} 
Flow 678: {16 2 0} {2 7 0} {7 65 0} 
Flow 728: {17 51 0} {51 56 0} 
Flow 925: {19 39 0} {39 40 0} {40 98 0} 
Flow 929: {21 47 0} {47 46 0} {46 45 0} {45 103 0} 
Flow 991: {23 52 0} {52 53 0} {53 57 0} {57 115 0} 
Flow 1004: {22 24 0} {24 17 0} {17 75 0} 
Flow 1042: {24 25 0} {25 15 0} {15 73 0} 
Flow 1093: {25 24 0} {24 22 0} {22 23 0} {23 81 0} 
Flow 1147: {26 28 0} {28 45 0} {45 40 0} {40 39 0} {39 97 0} 
Flow 1164: {27 51 0} {51 53 0} {53 4 0} {4 1 0} {1 59 0} 
Flow 1174: {32 31 0} {31 89 0} 
Flow 1224: {28 26 0} {26 18 0} {18 32 0} {32 90 0} 
Flow 1253: {29 52 0} {52 5 0} {5 6 0} {6 64 0} 
Flow 1266: {29 37 0} 
Flow 1294: {30 52 0} {52 11 0} {11 12 0} {12 70 0} 
Flow 1327: {31 49 0} {49 57 0} {57 3 0} {3 61 0} 
Flow 1380: {18 51 0} {51 52 0} {52 20 0} {20 21 0} {21 79 0} 
Flow 1410: {33 34 0} {34 92 0} 
Flow 1414: {33 51 0} {51 109 0} 
Flow 1491: {35 36 0} {36 51 0} {51 33 0} {33 91 0} 
Flow 1549: {36 35 0} {35 53 0} {53 38 0} 
Flow 1573: {37 11 0} 
Flow 1594: {52 51 0} {51 27 0} {27 85 0} 
Flow 1596: {37 29 0} 
Flow 1609: {37 52 0} {52 44 0} {44 43 0} {43 101 0} 
Flow 1631: {38 53 0} {53 54 0} {54 8 0} {8 66 0} 
Flow 1654: {38 34 0} {34 33 0} 
Flow 1665: {34 51 0} {51 45 0} {45 46 0} {46 104 0} 
Flow 1690: {39 19 0} {19 20 0} {20 52 0} {52 54 0} {54 2 0} {2 16 0} {16 74 0} 
Flow 1742: {40 45 0} {45 28 0} {28 15 0} {15 25 0} {25 83 0} 
Flow 1765: {45 51 0} {51 54 0} {54 112 0} 
Flow 1779: {41 44 0} {44 52 0} {52 10 0} {10 68 0} 
Flow 1822: {42 54 0} {54 53 0} {53 111 0} 
Flow 1837: {44 12 0} {12 11 0} {11 69 0} 
Flow 1872: {52 47 0} {47 105 0} 
Flow 1886: {43 54 0} {54 4 0} 
Flow 2013: {46 47 0} {47 21 0} {21 20 0} {20 78 0} 
Flow 2039: {47 52 0} {52 110 0} 
Flow 2064: {20 19 0} {19 77 0} 
Flow 2110: {48 52 0} {52 9 0} {9 67 0} 
Flow 2150: {48 54 0} {54 55 0} {55 113 0} 
Flow 2227: {50 49 0} {49 31 0} {31 32 0} {32 18 0} {18 76 0} 
Flow 2258: {50 3 0} 
Flow 2504: {55 54 0} {54 48 0} {48 106 0} 
Flow 2511: {55 53 0} {53 49 0} {49 58 0} 
Flow 2536: {56 51 0} {51 18 0} {18 26 0} {26 84 0} 
Flow 2559: {56 53 0} {53 55 0} 
Flow 2561: {56 57 0} {57 58 0} {58 116 0} 
Flow 2574: {57 53 0} {53 13 0} {13 71 0} 
Flow 2589: {53 51 0} {51 15 0} {15 28 0} {28 86 0} 
Flow 2625: {58 49 0} {49 53 0} {53 52 0} {52 23 0} {23 22 0} {22 80 0} 
Flow 2644: {58 57 0} {57 56 0} {56 114 0} 
Time taken running everything: 17 seconds
