networks/zoo_116_2645/zoo_116_2645-lower.sol
<?xml version = "1.0" encoding="UTF-8" standalone="yes"?>
<CPLEXSolution version="1.2">
 <header
   problemName="networks/zoo_116_2645/zoo_116_2645.lp"
   solutionName="incumbent"
   solutionIndex="-1"
   objectiveValue="71.000000000000014"
   solutionTypeValue="3"
   solutionTypeString="primal"
   solutionStatusValue="101"
   solutionStatusString="integer optimal solution"
   solutionMethodString="mip"
   primalFeasible="1"
   dualFeasible="1"
   MIPNodes="5602"
   MIPIterations="5295415"
   writeLevel="3"/>
 <quality
   epInt="1.0000000000000001e-05"
   epRHS="9.9999999999999995e-07"
   maxIntInfeas="1.4210854715202004e-14"
   maxPrimalInfeas="8.5265128291212022e-14"
   maxX="4"
   maxSlack="10"/>
 <variables>
  <variable name="Y(6,7)" index="581" value="1"/>
  <variable name="Y(13,14)" index="1393" value="1"/>
  <variable name="Y(116,52)" index="13276" value="1"/>
  <variable name="Y(135,33)" index="15442" value="1"/>
  <variable name="Y(194,48)" index="22242" value="1"/>
  <variable name="Y(206,3)" index="23577" value="1"/>
  <variable name="Y(215,13)" index="24622" value="1"/>
  <variable name="Y(290,37)" index="33271" value="1"/>
  <variable name="Y(315,7)" index="36116" value="1"/>
  <variable name="Y(334,27)" index="38321" value="1"/>
  <variable name="Y(374,16)" index="42910" value="1"/>
  <variable name="Y(393,49)" index="45128" value="1"/>
  <variable name="Y(449,56)" index="51575" value="1"/>
  <variable name="Y(480,30)" index="55114" value="1"/>
  <variable name="Y(494,44)" index="56738" value="1"/>
  <variable name="Y(510,5)" index="58539" value="1"/>
  <variable name="Y(528,42)" index="60646" value="1"/>
  <variable name="Y(542,1)" index="62215" value="1"/>
  <variable name="Y(601,53)" index="69052" value="1"/>
  <variable name="Y(652,35)" index="74899" value="1"/>
  <variable name="Y(675,2)" index="77511" value="1"/>
  <variable name="Y(680,12)" index="78096" value="1"/>
  <variable name="Y(686,52)" index="78826" value="1"/>
  <variable name="Y(767,38)" index="88127" value="1"/>
  <variable name="Y(870,40)" index="99974" value="1"/>
  <variable name="Y(896,10)" index="102934" value="1"/>
  <variable name="Y(929,45)" index="106764" value="1"/>
  <variable name="Y(943,2)" index="108331" value="1"/>
  <variable name="Y(964,25)" index="110769" value="1"/>
  <variable name="Y(1004,17)" index="115361" value="1"/>
  <variable name="Y(1063,51)" index="122180" value="1"/>
  <variable name="Y(1117,52)" index="128391" value="1"/>
  <variable name="Y(1147,39)" index="131828" value="1"/>
  <variable name="Y(1172,28)" index="134692" value="1"/>
  <variable name="Y(1215,22)" index="139631" value="1"/>
  <variable name="Y(1223,31)" index="140560" value="1"/>
  <variable name="Y(1253,6)" index="143985" value="1"/>
  <variable name="Y(1266,29)" index="145503" value="1"/>
  <variable name="Y(1291,9)" index="148358" value="1"/>
  <variable name="Y(1403,57)" index="161286" value="1"/>
  <variable name="Y(1410,34)" index="162068" value="1"/>
  <variable name="Y(1415,53)" index="162662" value="1"/>
  <variable name="Y(1502,46)" index="172660" value="1"/>
  <variable name="Y(1511,53)" index="173702" value="1"/>
  <variable name="Y(1578,11)" index="181365" value="1"/>
  <variable name="Y(1596,29)" index="183453" value="1"/>
  <variable name="Y(1609,43)" index="184962" value="1"/>
  <variable name="Y(1631,8)" index="187457" value="1"/>
  <variable name="Y(1647,24)" index="189313" value="1"/>
  <variable name="Y(1654,34)" index="190128" value="1"/>
  <variable name="Y(1689,15)" index="194134" value="1"/>
  <variable name="Y(1693,21)" index="194600" value="1"/>
  <variable name="Y(1765,54)" index="202913" value="1"/>
  <variable name="Y(1788,23)" index="205527" value="1"/>
  <variable name="Y(1814,20)" index="208514" value="1"/>
  <variable name="Y(1879,55)" index="216024" value="1"/>
  <variable name="Y(2027,52)" index="233041" value="1"/>
  <variable name="Y(2064,19)" index="237263" value="1"/>
  <variable name="Y(2105,4)" index="241963" value="1"/>
  <variable name="Y(2144,47)" index="246491" value="1"/>
  <variable name="Y(2179,26)" index="250495" value="1"/>
  <variable name="Y(2258,57)" index="259611" value="1"/>
  <variable name="Y(2260,49)" index="259833" value="1"/>
  <variable name="Y(2497,36)" index="287075" value="1"/>
  <variable name="Y(2501,41)" index="287540" value="1"/>
  <variable name="Y(2529,18)" index="290737" value="1"/>
  <variable name="Y(2559,53)" index="294222" value="1.0000000000000142"/>
  <variable name="Y(2561,58)" index="294457" value="1"/>
  <variable name="Y(2593,32)" index="298111" value="1"/>
  <variable name="Y(2638,52)" index="303306" value="1"/>
  <variable name="Y(2644,58)" index="304002" value="1"/>
  <variable name="X(1,2,6)" index="304180" value="1"/>
  <variable name="X(1,4,13)" index="306832" value="1"/>
  <variable name="X(1,59,542)" index="310006" value="1"/>
  <variable name="X(2,1,675)" index="312784" value="1"/>
  <variable name="X(2,7,6)" index="314760" value="1"/>
  <variable name="X(2,16,374)" index="317773" value="1"/>
  <variable name="X(2,54,680)" index="320724" value="1"/>
  <variable name="X(2,60,943)" index="323632" value="1"/>
  <variable name="X(3,57,2258)" index="327592" value="1"/>
  <variable name="X(3,61,206)" index="328185" value="1"/>
  <variable name="X(4,1,542)" index="331166" value="1"/>
  <variable name="X(4,53,13)" index="333282" value="1"/>
  <variable name="X(4,54,194)" index="336108" value="1"/>
  <variable name="X(4,62,2105)" index="340664" value="1"/>
  <variable name="X(5,6,1253)" index="342457" value="1"/>
  <variable name="X(5,52,215)" index="344064" value="1"/>
  <variable name="X(5,63,510)" index="347004" value="1"/>
  <variable name="X(6,5,510)" index="349649" value="1"/>
  <variable name="X(6,11,290)" index="352074" value="1"/>
  <variable name="X(6,64,1253)" index="355682" value="1"/>
  <variable name="X(7,2,374)" index="357448" value="1"/>
  <variable name="X(7,8,315)" index="360034" value="1"/>
  <variable name="X(7,65,6)" index="362370" value="1"/>
  <variable name="X(8,7,374)" index="365383" value="1"/>
  <variable name="X(8,54,393)" index="368047" value="1"/>
  <variable name="X(8,66,1631)" index="371930" value="1"/>
  <variable name="X(9,67,1291)" index="374235" value="1"/>
  <variable name="X(10,52,449)" index="376038" value="1"/>
  <variable name="X(10,68,896)" index="379130" value="1"/>
  <variable name="X(11,6,510)" index="381389" value="1"/>
  <variable name="X(11,12,494)" index="384018" value="1"/>
  <variable name="X(11,37,290)" index="386459" value="1"/>
  <variable name="X(11,52,480)" index="389294" value="1"/>
  <variable name="X(11,69,1578)" index="393037" value="1"/>
  <variable name="X(12,11,510)" index="394614" value="1"/>
  <variable name="X(12,44,494)" index="397243" value="1"/>
  <variable name="X(12,70,680)" index="400074" value="1"/>
  <variable name="X(13,53,542)" index="402581" value="1"/>
  <variable name="X(13,71,215)" index="404899" value="1"/>
  <variable name="X(14,53,601)" index="407930" value="1"/>
  <variable name="X(14,72,13)" index="409987" value="1"/>
  <variable name="X(15,25,1215)" index="413834" value="1"/>
  <variable name="X(15,28,1172)" index="416436" value="1"/>
  <variable name="X(15,51,1117)" index="419026" value="1"/>
  <variable name="X(15,73,1689)" index="422243" value="1"/>
  <variable name="X(16,2,675)" index="423874" value="0.99999999999999978"/>
  <variable name="X(16,74,374)" index="426218" value="1"/>
  <variable name="X(17,24,1647)" index="430136" value="1"/>
  <variable name="X(17,51,1063)" index="432197" value="1"/>
  <variable name="X(17,75,1004)" index="434783" value="1"/>
  <variable name="X(18,26,2179)" index="438603" value="1"/>
  <variable name="X(18,32,1223)" index="440292" value="1"/>
  <variable name="X(18,51,767)" index="442481" value="1"/>
  <variable name="X(18,76,2529)" index="446888" value="1"/>
  <variable name="X(19,20,1693)" index="448697" value="1"/>
  <variable name="X(19,39,870)" index="450519" value="1"/>
  <variable name="X(19,77,2064)" index="454358" value="1"/>
  <variable name="X(20,19,2064)" index="457003" value="1"/>
  <variable name="X(20,21,1693)" index="459277" value="1"/>
  <variable name="X(20,52,896)" index="461125" value="1"/>
  <variable name="X(20,78,1814)" index="464688" value="1"/>
  <variable name="X(21,20,2064)" index="467583" value="1"/>
  <variable name="X(21,47,929)" index="469093" value="1"/>
  <variable name="X(21,79,1693)" index="472502" value="1"/>
  <variable name="X(22,23,943)" index="474397" value="0.99999999999999989"/>
  <variable name="X(22,24,1004)" index="477103" value="1"/>
  <variable name="X(22,80,1215)" index="479959" value="1"/>
  <variable name="X(23,22,1004)" index="482393" value="1"/>
  <variable name="X(23,52,943)" index="484977" value="1"/>
  <variable name="X(23,81,1788)" index="488467" value="1"/>
  <variable name="X(24,17,1004)" index="490328" value="1"/>
  <variable name="X(24,22,1215)" index="493184" value="1"/>
  <variable name="X(24,25,964)" index="495578" value="1"/>
  <variable name="X(24,82,1647)" index="498906" value="1"/>
  <variable name="X(25,15,1117)" index="501021" value="1"/>
  <variable name="X(25,24,1215)" index="503764" value="1"/>
  <variable name="X(25,83,964)" index="506158" value="1"/>
  <variable name="X(26,18,1223)" index="509062" value="1"/>
  <variable name="X(26,28,1147)" index="511631" value="1"/>
  <variable name="X(26,84,2179)" index="515308" value="1"/>
  <variable name="X(27,51,1172)" index="516946" value="1"/>
  <variable name="X(27,85,334)" index="518753" value="1"/>
  <variable name="X(28,15,1689)" index="522753" value="1"/>
  <variable name="X(28,26,1223)" index="524932" value="1"/>
  <variable name="X(28,45,1147)" index="527501" value="1"/>
  <variable name="X(28,86,1172)" index="530171" value="1"/>
  <variable name="X(29,37,1266)" index="532910" value="1"/>
  <variable name="X(29,52,1253)" index="535542" value="1"/>
  <variable name="X(29,87,1596)" index="538530" value="1"/>
  <variable name="X(30,52,1291)" index="540870" value="1"/>
  <variable name="X(30,88,480)" index="542704" value="1"/>
  <variable name="X(31,32,2593)" index="547462" value="1.0000000000000004"/>
  <variable name="X(31,49,1403)" index="548917" value="1"/>
  <variable name="X(31,89,1223)" index="551382" value="1"/>
  <variable name="X(32,18,2179)" index="554983" value="1"/>
  <variable name="X(32,31,1223)" index="556672" value="1"/>
  <variable name="X(32,90,2593)" index="560687" value="1"/>
  <variable name="X(33,34,1410)" index="562149" value="1"/>
  <variable name="X(33,51,1415)" index="564799" value="1"/>
  <variable name="X(33,91,135)" index="566164" value="1"/>
  <variable name="X(34,33,1654)" index="570328" value="1"/>
  <variable name="X(34,38,767)" index="572086" value="1"/>
  <variable name="X(34,51,1647)" index="575611" value="1"/>
  <variable name="X(34,92,1410)" index="578019" value="1"/>
  <variable name="X(35,36,2497)" index="581751" value="1"/>
  <variable name="X(35,53,1511)" index="583410" value="1"/>
  <variable name="X(35,93,652)" index="585196" value="1"/>
  <variable name="X(36,35,652)" index="587841" value="1"/>
  <variable name="X(36,51,1502)" index="591336" value="1"/>
  <variable name="X(36,94,2497)" index="594976" value="1"/>
  <variable name="X(37,11,1578)" index="596702" value="1"/>
  <variable name="X(37,29,1596)" index="599365" value="1"/>
  <variable name="X(37,52,1609)" index="602023" value="1"/>
  <variable name="X(37,95,290)" index="603349" value="1"/>
  <variable name="X(38,34,1647)" index="607351" value="0.99999999999999956"/>
  <variable name="X(38,53,1631)" index="609980" value="1"/>
  <variable name="X(38,96,767)" index="611761" value="1"/>
  <variable name="X(39,19,1693)" index="615332" value="1"/>
  <variable name="X(39,40,870)" index="617154" value="1"/>
  <variable name="X(39,97,1147)" index="620076" value="1"/>
  <variable name="X(40,39,1147)" index="622721" value="1"/>
  <variable name="X(40,45,1765)" index="625984" value="1"/>
  <variable name="X(40,98,870)" index="627734" value="1"/>
  <variable name="X(41,42,528)" index="630037" value="1"/>
  <variable name="X(41,44,1788)" index="633942" value="1"/>
  <variable name="X(41,99,2501)" index="637300" value="1"/>
  <variable name="X(42,41,2501)" index="639945" value="1"/>
  <variable name="X(42,54,1814)" index="641903" value="1"/>
  <variable name="X(42,100,528)" index="643262" value="1"/>
  <variable name="X(43,44,680)" index="646059" value="1"/>
  <variable name="X(43,54,1879)" index="649903" value="1"/>
  <variable name="X(43,101,1609)" index="652278" value="1"/>
  <variable name="X(44,12,680)" index="653994" value="1"/>
  <variable name="X(44,41,528)" index="656487" value="1"/>
  <variable name="X(44,43,1609)" index="660213" value="1"/>
  <variable name="X(44,52,1788)" index="663037" value="1"/>
  <variable name="X(44,102,494)" index="664388" value="1"/>
  <variable name="X(45,28,1689)" index="668228" value="1"/>
  <variable name="X(45,40,1147)" index="670331" value="1"/>
  <variable name="X(45,46,1502)" index="673331" value="1"/>
  <variable name="X(45,51,1765)" index="676239" value="1"/>
  <variable name="X(45,103,929)" index="678048" value="1"/>
  <variable name="X(46,45,929)" index="680693" value="1"/>
  <variable name="X(46,47,2027)" index="684436" value="1"/>
  <variable name="X(46,104,1502)" index="686556" value="1"/>
  <variable name="X(47,21,2064)" index="689763" value="1"/>
  <variable name="X(47,46,929)" index="691273" value="1"/>
  <variable name="X(47,52,2027)" index="695016" value="1"/>
  <variable name="X(47,105,2144)" index="697778" value="1"/>
  <variable name="X(48,52,2144)" index="700423" value="1"/>
  <variable name="X(48,54,2105)" index="703029" value="1"/>
  <variable name="X(48,106,194)" index="703763" value="1"/>
  <variable name="X(49,31,2593)" index="708807" value="1"/>
  <variable name="X(49,53,2638)" index="711497" value="1"/>
  <variable name="X(49,57,1403)" index="712907" value="1"/>
  <variable name="X(49,58,2260)" index="716409" value="1"/>
  <variable name="X(49,107,393)" index="717187" value="1"/>
  <variable name="X(50,3,2258)" index="721697" value="1"/>
  <variable name="X(50,49,2260)" index="724344" value="1"/>
  <variable name="X(51,15,1172)" index="725901" value="1"/>
  <variable name="X(51,17,1647)" index="729021" value="1"/>
  <variable name="X(51,18,2529)" index="732548" value="1"/>
  <variable name="X(51,27,334)" index="732998" value="1"/>
  <variable name="X(51,33,135)" index="735444" value="1"/>
  <variable name="X(51,34,767)" index="738721" value="1"/>
  <variable name="X(51,36,652)" index="741251" value="1"/>
  <variable name="X(51,45,1502)" index="744746" value="1"/>
  <variable name="X(51,52,1117)" index="747006" value="1"/>
  <variable name="X(51,53,1415)" index="749949" value="1"/>
  <variable name="X(51,54,1765)" index="752944" value="1"/>
  <variable name="X(51,56,449)" index="754273" value="1"/>
  <variable name="X(51,109,1063)" index="757532" value="1"/>
  <variable name="X(52,5,1253)" index="760367" value="1"/>
  <variable name="X(52,9,1291)" index="763050" value="1"/>
  <variable name="X(52,10,896)" index="765300" value="1.0000000000000002"/>
  <variable name="X(52,11,116)" index="767165" value="1"/>
  <variable name="X(52,20,1814)" index="771508" value="1"/>
  <variable name="X(52,23,1788)" index="774127" value="1"/>
  <variable name="X(52,29,686)" index="775670" value="1"/>
  <variable name="X(52,30,480)" index="778109" value="1"/>
  <variable name="X(52,37,2027)" index="782301" value="1"/>
  <variable name="X(52,44,1609)" index="784528" value="1"/>
  <variable name="X(52,47,2144)" index="787708" value="1"/>
  <variable name="X(52,48,2638)" index="790847" value="1"/>
  <variable name="X(52,51,449)" index="791303" value="1"/>
  <variable name="X(52,53,215)" index="793714" value="1"/>
  <variable name="X(52,54,943)" index="797087" value="1"/>
  <variable name="X(52,110,1117)" index="799906" value="1"/>
  <variable name="X(53,4,542)" index="801976" value="1"/>
  <variable name="X(53,13,215)" index="804294" value="1"/>
  <variable name="X(53,14,13)" index="806737" value="1"/>
  <variable name="X(53,35,2497)" index="811866" value="1"/>
  <variable name="X(53,38,601)" index="812615" value="1"/>
  <variable name="X(53,49,393)" index="815052" value="1"/>
  <variable name="X(53,51,135)" index="817439" value="1"/>
  <variable name="X(53,52,2638)" index="822587" value="1"/>
  <variable name="X(53,54,1631)" index="824225" value="1"/>
  <variable name="X(53,55,2559)" index="827798" value="1"/>
  <variable name="X(53,56,1511)" index="829395" value="1"/>
  <variable name="X(53,57,206)" index="830735" value="1"/>
  <variable name="X(53,111,1415)" index="834589" value="1"/>
  <variable name="X(54,2,943)" index="836762" value="1"/>
  <variable name="X(54,4,2105)" index="840569" value="1"/>
  <variable name="X(54,8,1631)" index="842740" value="1"/>
  <variable name="X(54,42,2501)" index="846255" value="1"/>
  <variable name="X(54,43,680)" index="847079" value="1"/>
  <variable name="X(54,48,194)" index="849238" value="1"/>
  <variable name="X(54,51,334)" index="852023" value="1"/>
  <variable name="X(54,52,1814)" index="856148" value="1"/>
  <variable name="X(54,53,393)" index="857372" value="1"/>
  <variable name="X(54,55,1879)" index="861503" value="1"/>
  <variable name="X(54,112,1765)" index="864034" value="1"/>
  <variable name="X(55,53,2497)" index="867411" value="1"/>
  <variable name="X(55,54,2501)" index="870060" value="1"/>
  <variable name="X(55,113,1879)" index="872083" value="1"/>
  <variable name="X(56,51,2529)" index="875378" value="1"/>
  <variable name="X(56,53,2559)" index="878053" value="1.0000000000000142"/>
  <variable name="X(56,57,2561)" index="880700" value="1"/>
  <variable name="X(56,114,449)" index="881233" value="1"/>
  <variable name="X(57,3,206)" index="883635" value="1"/>
  <variable name="X(57,49,2593)" index="888667" value="1"/>
  <variable name="X(57,53,135)" index="888854" value="1"/>
  <variable name="X(57,56,2258)" index="893622" value="1"/>
  <variable name="X(57,58,2561)" index="896570" value="1"/>
  <variable name="X(57,115,1403)" index="898057" value="1"/>
  <variable name="X(58,49,2638)" index="901937" value="1"/>
  <variable name="X(58,57,2644)" index="904588" value="1"/>
  <variable name="X(58,116,2561)" index="907150" value="1"/>
  <variable name="C(6,2)" index="907256" value="1"/>
  <variable name="C(6,7)" index="907257" value="2"/>
  <variable name="C(13,4)" index="907288" value="1"/>
  <variable name="C(13,53)" index="907289" value="2"/>
  <variable name="C(13,14)" index="907290" value="3"/>
  <variable name="C(135,53)" index="907846" value="1"/>
  <variable name="C(135,51)" index="907847" value="2"/>
  <variable name="C(135,33)" index="907848" value="3"/>
  <variable name="C(194,54)" index="908093" value="1.0000000000000018"/>
  <variable name="C(194,48)" index="908094" value="2"/>
  <variable name="C(206,57)" index="908133" value="1"/>
  <variable name="C(206,3)" index="908134" value="2"/>
  <variable name="C(215,52)" index="908164" value="1"/>
  <variable name="C(215,53)" index="908165" value="2"/>
  <variable name="C(215,13)" index="908166" value="3"/>
  <variable name="C(290,11)" index="908486" value="1"/>
  <variable name="C(290,37)" index="908487" value="2"/>
  <variable name="C(334,51)" index="908699" value="1"/>
  <variable name="C(334,27)" index="908700" value="2"/>
  <variable name="C(374,7)" index="908885" value="1"/>
  <variable name="C(374,2)" index="908886" value="2"/>
  <variable name="C(374,16)" index="908887" value="3"/>
  <variable name="C(393,54)" index="908966" value="1"/>
  <variable name="C(393,53)" index="908967" value="2"/>
  <variable name="C(393,49)" index="908968" value="3"/>
  <variable name="C(449,52)" index="909179" value="1"/>
  <variable name="C(449,51)" index="909180" value="2"/>
  <variable name="C(449,56)" index="909181" value="3"/>
  <variable name="C(480,52)" index="909302" value="1"/>
  <variable name="C(480,30)" index="909303" value="2"/>
  <variable name="C(494,12)" index="909359" value="1"/>
  <variable name="C(494,44)" index="909360" value="1.9999999999999998"/>
  <variable name="C(510,11)" index="909419" value="1"/>
  <variable name="C(510,6)" index="909420" value="2"/>
  <variable name="C(510,5)" index="909421" value="3"/>
  <variable name="C(528,41)" index="909507" value="1"/>
  <variable name="C(528,42)" index="909508" value="2"/>
  <variable name="C(542,53)" index="909566" value="1"/>
  <variable name="C(542,4)" index="909567" value="2"/>
  <variable name="C(542,1)" index="909568" value="3"/>
  <variable name="C(601,53)" index="909810" value="1"/>
  <variable name="C(652,36)" index="910007" value="1"/>
  <variable name="C(652,35)" index="910008" value="1.9999999999999998"/>
  <variable name="C(675,2)" index="910092" value="0.99999999999999978"/>
  <variable name="C(680,54)" index="910115" value="1"/>
  <variable name="C(680,43)" index="910116" value="2"/>
  <variable name="C(680,44)" index="910117" value="3"/>
  <variable name="C(680,12)" index="910118" value="4"/>
  <variable name="C(767,51)" index="910481" value="1"/>
  <variable name="C(767,34)" index="910482" value="2"/>
  <variable name="C(767,38)" index="910483" value="3"/>
  <variable name="C(870,39)" index="910914" value="1"/>
  <variable name="C(870,40)" index="910915" value="1.9999999999999998"/>
  <variable name="C(896,52)" index="911021" value="1"/>
  <variable name="C(896,10)" index="911022" value="2"/>
  <variable name="C(929,47)" index="911178" value="1"/>
  <variable name="C(929,46)" index="911179" value="2"/>
  <variable name="C(929,45)" index="911180" value="3"/>
  <variable name="C(943,23)" index="911238" value="0.99999999999999989"/>
  <variable name="C(943,52)" index="911239" value="2"/>
  <variable name="C(943,54)" index="911240" value="3"/>
  <variable name="C(943,2)" index="911241" value="4"/>
  <variable name="C(964,25)" index="911336" value="1"/>
  <variable name="C(1004,23)" index="911516" value="1"/>
  <variable name="C(1004,22)" index="911517" value="2"/>
  <variable name="C(1004,24)" index="911518" value="3"/>
  <variable name="C(1004,17)" index="911519" value="4"/>
  <variable name="C(1063,51)" index="911777" value="1"/>
  <variable name="C(1117,25)" index="912030" value="1"/>
  <variable name="C(1117,15)" index="912031" value="2"/>
  <variable name="C(1117,51)" index="912032" value="3"/>
  <variable name="C(1117,52)" index="912033" value="4"/>
  <variable name="C(1147,28)" index="912176" value="1"/>
  <variable name="C(1147,45)" index="912177" value="2"/>
  <variable name="C(1147,40)" index="912178" value="3"/>
  <variable name="C(1147,39)" index="912179" value="4"/>
  <variable name="C(1172,51)" index="912289" value="1"/>
  <variable name="C(1172,15)" index="912290" value="2"/>
  <variable name="C(1172,28)" index="912291" value="3.0000000000000009"/>
  <variable name="C(1215,25)" index="912478" value="1"/>
  <variable name="C(1215,24)" index="912479" value="2"/>
  <variable name="C(1215,22)" index="912480" value="3"/>
  <variable name="C(1223,26)" index="912510" value="1"/>
  <variable name="C(1223,18)" index="912511" value="2"/>
  <variable name="C(1223,32)" index="912512" value="3"/>
  <variable name="C(1223,31)" index="912513" value="4"/>
  <variable name="C(1253,52)" index="912640" value="1"/>
  <variable name="C(1253,5)" index="912641" value="2"/>
  <variable name="C(1253,6)" index="912642" value="3"/>
  <variable name="C(1291,52)" index="912791" value="1"/>
  <variable name="C(1291,9)" index="912792" value="2"/>
  <variable name="C(1403,49)" index="913295" value="1"/>
  <variable name="C(1403,57)" index="913296" value="2"/>
  <variable name="C(1410,34)" index="913321" value="1"/>
  <variable name="C(1415,51)" index="913337" value="1"/>
  <variable name="C(1415,53)" index="913338" value="2"/>
  <variable name="C(1502,51)" index="913696" value="1"/>
  <variable name="C(1502,45)" index="913697" value="2"/>
  <variable name="C(1502,46)" index="913698" value="3"/>
  <variable name="C(1511,53)" index="913725" value="1"/>
  <variable name="C(1578,11)" index="913989" value="1"/>
  <variable name="C(1596,29)" index="914061" value="1"/>
  <variable name="C(1609,52)" index="914114" value="1"/>
  <variable name="C(1609,44)" index="914115" value="2"/>
  <variable name="C(1609,43)" index="914116" value="3"/>
  <variable name="C(1631,53)" index="914196" value="1"/>
  <variable name="C(1631,54)" index="914197" value="2"/>
  <variable name="C(1631,8)" index="914198" value="3"/>
  <variable name="C(1647,34)" index="914263" value="0.99999999999999956"/>
  <variable name="C(1647,51)" index="914264" value="1.9999999999999996"/>
  <variable name="C(1647,17)" index="914265" value="2.9999999999999996"/>
  <variable name="C(1647,24)" index="914266" value="3.9999999999999996"/>
  <variable name="C(1689,28)" index="914452" value="1"/>
  <variable name="C(1689,15)" index="914453" value="2"/>
  <variable name="C(1693,19)" index="914470" value="1"/>
  <variable name="C(1693,20)" index="914471" value="2"/>
  <variable name="C(1693,21)" index="914472" value="3"/>
  <variable name="C(1765,45)" index="914818" value="1"/>
  <variable name="C(1765,51)" index="914819" value="2"/>
  <variable name="C(1765,54)" index="914820" value="3"/>
  <variable name="C(1788,41)" index="914922" value="1"/>
  <variable name="C(1788,44)" index="914923" value="2"/>
  <variable name="C(1788,52)" index="914924" value="3"/>
  <variable name="C(1788,23)" index="914925" value="4"/>
  <variable name="C(1814,54)" index="915036" value="1"/>
  <variable name="C(1814,52)" index="915037" value="1.9999999999999982"/>
  <variable name="C(1814,20)" index="915038" value="2.9999999999999982"/>
  <variable name="C(1879,54)" index="915296" value="1"/>
  <variable name="C(1879,55)" index="915297" value="2"/>
  <variable name="C(2027,47)" index="915887" value="1"/>
  <variable name="C(2027,52)" index="915888" value="2"/>
  <variable name="C(2064,21)" index="916036" value="1"/>
  <variable name="C(2064,20)" index="916037" value="2"/>
  <variable name="C(2064,19)" index="916038" value="3"/>
  <variable name="C(2105,54)" index="916190" value="1"/>
  <variable name="C(2105,4)" index="916191" value="2"/>
  <variable name="C(2144,52)" index="916340" value="1"/>
  <variable name="C(2144,47)" index="916341" value="2"/>
  <variable name="C(2179,18)" index="916480" value="1"/>
  <variable name="C(2179,26)" index="916481" value="2"/>
  <variable name="C(2258,3)" index="916828" value="1"/>
  <variable name="C(2258,57)" index="916829" value="2"/>
  <variable name="C(2260,49)" index="916835" value="1"/>
  <variable name="C(2497,55)" index="917571" value="1"/>
  <variable name="C(2497,53)" index="917572" value="2"/>
  <variable name="C(2497,35)" index="917573" value="3"/>
  <variable name="C(2497,36)" index="917574" value="4"/>
  <variable name="C(2501,54)" index="917591" value="1"/>
  <variable name="C(2501,42)" index="917592" value="2"/>
  <variable name="C(2501,41)" index="917593" value="3"/>
  <variable name="C(2529,51)" index="917691" value="1"/>
  <variable name="C(2529,18)" index="917692" value="2"/>
  <variable name="C(2559,53)" index="917803" value="1.0000000000000142"/>
  <variable name="C(2561,57)" index="917808" value="1"/>
  <variable name="C(2561,58)" index="917809" value="2"/>
  <variable name="C(2593,49)" index="917940" value="1"/>
  <variable name="C(2593,31)" index="917941" value="2"/>
  <variable name="C(2593,32)" index="917942" value="3"/>
  <variable name="C(2638,49)" index="918137" value="1"/>
  <variable name="C(2638,53)" index="918138" value="1.9999999999999998"/>
  <variable name="C(2638,52)" index="918139" value="3"/>
 </variables>
</CPLEXSolution>
